4 
5  04 20 35 50 
6  05 15 23 31 38 46 53 
7  01 08 16 23 31 38 46 53 
8  01 08 16 23 31 38 46 54 
9  04 12 19 27 34 42 49 57 
10  04 12 19 27 34 42 49 57 
11  04 12 19 27 34 42 49 57 
12  04 12 19 27 34 42 49 57 
13  04 11 18 26 33 41 48 56 
14  03 11 18 26 33 41 48 56 
15  03 11 18 26 33 41 48 56 
16  03 11 18 26 33 41 48 56 
17  03 11 18 26 33 41 48 56 
18  03 11 18 26 35 43 50 58 
19  05 13 20 28 35 43 50 58 
20  05 13 20 28 35 43 50 58 
21  13 24 40 55 
22  11 25 41 55 
23  09 26 
0 
